problem_generation/data/GISP/train/er_n=64_m=1180_p=0.60_SET2_setparam=100.00_alpha=0.50_724.lp
maximize
OBJ:100x0 + 100x1 + 100x2 + 100x3 + 100x4 + 100x5 + 100x6 + 100x7 + 100x8 + 100x9 + 100x10 + 100x11 + 100x12 + 100x13 + 100x14 + 100x15 + 100x16 + 100x17 + 100x18 + 100x19 + 100x20 + 100x21 + 100x22 + 100x23 + 100x24 + 100x25 + 100x26 + 100x27 + 100x28 + 100x29 + 100x30 + 100x31 + 100x32 + 100x33 + 100x34 + 100x35 + 100x36 + 100x37 + 100x38 + 100x39 + 100x40 + 100x41 + 100x42 + 100x43 + 100x44 + 100x45 + 100x46 + 100x47 + 100x48 + 100x49 + 100x50 + 100x51 + 100x52 + 100x53 + 100x54 + 100x55 + 100x56 + 100x57 + 100x58 + 100x59 + 100x60 + 100x61 + 100x62 + 100x63 - y15_21 - y36_53 - y26_39 - y7_35 - y18_44 - y0_5 - y8_18 - y11_14 - y29_50 - y40_50 - y6_57 - y40_59 - y41_42 - y33_38 - y25_34 - y10_45 - y2_41 - y10_54 - y10_63 - y22_28 - y2_59 - y43_60 - y3_33 - y14_33 - y22_46 - y55_61 - y7_21 - y18_21 - y5_60 - y6_34 - y48_58 - y21_41 - y29_54 - y40_63 - y10_22 - y2_27 - y10_40 - y2_36 - y25_38 - y44_51 - y22_23 - y51_59 - y32_55 - y13_51 - y13_60 - y35_60 - y3_37 - y36_43 - y17_39 - y28_39 - y36_52 - y17_48 - y36_61 - y9_44 - y6_29 - y29_31 - y40_49 - y40_58 - y10_17 - y39_62 - y51_54 - y2_49 - y3_14 - y35_46 - y3_23 - y1_53 - y13_55 - y35_55 - y16_51 - y17_43 - y36_56 - y5_50 - y6_15 - y28_52 - y17_61 - y6_33 - y42_63 - y39_48 - y31_53 - y10_30 - y31_62 - y12_58 - y2_35 - y32_36 - y13_32 - y3_9 - y4_63 - y13_41 - y43_54 - y16_37 - y13_50 - y24_59 - y28_29 - y36_42 - y5_36 - y17_38 - y36_51 - y9_34 - y17_47 - y6_10 - y28_47 - y9_43 - y5_63 - y29_30 - y21_26 - y10_16 - y10_25 - y39_61 - y54_59 - y23_53 - y2_30 - y1_34 - y32_49 - y16_32 - y1_43 - y24_54 - y13_63 - y35_63 - y5_22 - y36_37 - y5_40 - y17_42 - y9_38 - y42_44 - y8_51 - y42_53 - y11_56 - y39_56 - y23_39 - y31_52 - y20_61 - y23_57 - y13_22 - y16_18 - y13_31 - y24_31 - y43_44 - y1_38 - y24_40 - y1_47 - y13_49 - y24_49 - y1_56 - y5_17 - y17_28 - y38_60 - y7_63 - y27_41 - y27_50 - y19_46 - y27_59 - y19_55 - y30_55 - y0_60 - y12_25 - y23_25 - y23_34 - y31_56 - y12_52 - y13_26 - y53_62 - y24_35 - y16_31 - y1_42 - y37_63 - y16_49 - y5_12 - y26_53 - y15_62 - y27_36 - y6_13 - y19_32 - y8_41 - y30_41 - y50_56 - y0_37 - y19_50 - y27_63 - y42_61 - y31_33 - y23_29 - y31_51 - y4_34 - y23_56 - y4_52 - y34_53 - y16_26 - y22_60 - y34_62 - y5_7 - y15_48 - y38_50 - y49_50 - y38_59 - y49_59 - y7_53 - y7_62 - y27_40 - y30_36 - y27_49 - y0_32 - y11_32 - y42_47 - y50_51 - y19_54 - y30_54 - y8_63 - y4_11 - y0_59 - y11_59 - y39_41 - y23_33 - y16_21 - y3_51 - y16_30 - y3_60 - y14_60 - y15_43 - y26_43 - y38_45 - y18_39 - y46_58 - y57_58 - y49_63 - y8_22 - y19_22 - y0_18 - y11_18 - y8_40 - y19_40 - y30_40 - y30_58 - y20_23 - y12_19 - y33_60 - y23_37 - y4_33 - y1_9 - y53_56 - y45_61 - y14_55 - y18_25 - y26_56 - y7_52 - y27_30 - y0_13 - y11_13 - y48_62 - y0_22 - y0_31 - y8_44 - y30_44 - y11_49 - y12_14 - y60_63 - y52_59 - y10_53 - y33_55 - y25_51 - y2_58 - y22_36 - y34_47 - y3_41 - y14_41 - y34_56 - y45_56 - y22_63 - y14_59 - y15_33 - y15_42 - y7_38 - y7_56 - y8_21 - y11_17 - y0_26 - y0_35 - y4_5 - y33_50 - y25_46 - y2_62 - y3_27 - y3_36 - y14_36 - y22_49 - y34_51 - y37_47 - y22_58 - y18_24 - y36_60 - y15_37 - y7_33 - y26_46 - y7_42 - y18_42 - y8_16 - y29_48 - y48_61 - y21_44 - y11_21 - y29_57 - y11_30 - y41_49 - y44_45 - y52_58 - y2_39 - y44_54 - y2_48 - y3_13 - y44_63 - y2_57 - y25_59 - y14_40 - y3_49 - y7_10 - y7_28 - y7_37 - y0_7 - y48_56 - y0_16 - y6_50 - y11_16 - y21_48 - y40_52 - y2_25 - y2_34 - y3_8 - y2_52 - y32_53 - y22_39 - y14_44 - y36_50 - y28_46 - y28_55 - y5_62 - y48_51 - y21_34 - y29_47 - y40_47 - y6_54 - y21_52 - y10_15 - y21_61 - y54_58 - y10_42 - y2_47 - y32_48 - y51_61 - y43_57 - y13_53 - y3_30 - y1_60 - y13_62 - y17_32 - y7_9 - y36_54 - y17_59 - y28_59 - y9_55 - y6_40 - y29_42 - y6_49 - y2_6 - y39_55 - y10_28 - y25_26 - y31_60 - y10_37 - y54_62 - y25_35 - y35_39 - y43_52 - y32_61 - y16_44 - y1_55 - y13_57 - y36_40 - y9_23 - y5_34 - y28_45 - y6_8 - y28_54 - y6_17 - y9_50 - y9_59 - y6_35 - y21_33 - y39_50 - y20_46 - y31_55 - y32_38 - y24_34 - y13_43 - y24_43 - y32_56 - y16_39 - y36_44 - y5_38 - y9_36 - y6_12 - y5_56 - y9_54 - y6_30 - y27_62 - y6_39 - y20_50 - y23_46 - y2_23 - y20_59 - y31_59 - y23_55 - y4_51 - y4_60 - y16_34 - y13_47 - y1_54 - y17_26 - y9_40 - y5_51 - y6_16 - y58_63 - y42_55 - y31_36 - y31_45 - y39_58 - y12_41 - y13_15 - y4_46 - y32_46 - y16_29 - y43_46 - y16_38 - y1_49 - y5_10 - y1_58 - y46_48 - y17_21 - y49_53 - y17_30 - y9_26 - y26_60 - y30_39 - y27_52 - y50_63 - y11_44 - y0_53 - y12_18 - y39_44 - y4_23 - y39_53 - y20_49 - y23_45 - y4_41 - y13_19 - y4_59 - y34_60 - y45_60 - y13_37 - y56_60 - y16_42 - y38_39 - y9_12 - y26_55 - y5_32 - y7_60 - y8_25 - y11_48 - y19_61 - y60_62 - y0_57 - y20_35 - y31_35 - y20_44 - y31_44 - y4_36 - y12_49 - y1_12 - y13_14 - y23_49 - y1_21 - y53_59 - y4_54 - y1_30 - y37_51 - y22_62 - y26_41 - y5_18 - y46_56 - y26_50 - y7_46 - y15_59 - y26_59 - y19_38 - y27_51 - y19_47 - y0_43 - y8_56 - y41_53 - y52_53 - y4_13 - y0_61 - y41_62 - y52_62 - y33_58 - y44_58 - y12_35 - y23_35 - y1_7 - y1_16 - y53_54 - y1_25 - y37_46 - y53_63 - y14_62 - y26_36 - y5_13 - y38_47 - y26_54 - y8_15 - y7_59 - y19_24 - y30_33 - y11_29 - y0_38 - y11_38 - y30_51 - y0_47 - y60_61 - y12_21 - y41_57 - y33_53 - y12_30 - y23_30 - y4_26 - y1_2 - y22_34 - y34_36 - y22_43 - y53_58 - y34_54 - y34_63 - y45_63 - y15_22 - y7_27 - y18_36 - y7_45 - y18_45 - y18_54 - y27_32 - y8_28 - y29_60 - y30_37 - y0_42 - y11_42 - y12_16 - y41_52 - y10_46 - y41_61 - y10_55 - y2_51 - y25_62 - y34_40 - y34_49 - y45_49 - y3_43 - y14_43 - y22_56 - y14_61 - y7_31 - y15_44 - y18_40 - y48_50 - y0_10 - y29_46 - y8_23 - y0_19 - y6_53 - y21_60 - y52_56 - y25_48 - y2_55 - y14_20 - y22_33 - y3_38 - y14_38 - y22_51 - y3_47
 Subject to
C1: x0+x2 <=1 
C2: x0+x3 <=1 
C3: x0+x4 <=1 
C4: x0+x5-y0_5 <=1 
C5: x0+x6 <=1 
C6: x0+x7-y0_7 <=1 
C7: x0+x10-y0_10 <=1 
C8: x0+x12 <=1 
C9: x0+x13-y0_13 <=1 
C10: x0+x14 <=1 
C11: x0+x15 <=1 
C12: x0+x16-y0_16 <=1 
C13: x0+x17 <=1 
C14: x0+x18-y0_18 <=1 
C15: x0+x19-y0_19 <=1 
C16: x0+x22-y0_22 <=1 
C17: x0+x24 <=1 
C18: x0+x25 <=1 
C19: x0+x26-y0_26 <=1 
C20: x0+x29 <=1 
C21: x0+x31-y0_31 <=1 
C22: x0+x32-y0_32 <=1 
C23: x0+x33 <=1 
C24: x0+x35-y0_35 <=1 
C25: x0+x36 <=1 
C26: x0+x37-y0_37 <=1 
C27: x0+x38-y0_38 <=1 
C28: x0+x42-y0_42 <=1 
C29: x0+x43-y0_43 <=1 
C30: x0+x44 <=1 
C31: x0+x45 <=1 
C32: x0+x47-y0_47 <=1 
C33: x0+x53-y0_53 <=1 
C34: x0+x54 <=1 
C35: x0+x57-y0_57 <=1 
C36: x0+x58 <=1 
C37: x0+x59-y0_59 <=1 
C38: x0+x60-y0_60 <=1 
C39: x0+x61-y0_61 <=1 
C40: x0+x63 <=1 
C41: x1+x2-y1_2 <=1 
C42: x1+x3 <=1 
C43: x1+x4 <=1 
C44: x1+x5 <=1 
C45: x1+x7-y1_7 <=1 
C46: x1+x9-y1_9 <=1 
C47: x1+x12-y1_12 <=1 
C48: x1+x15 <=1 
C49: x1+x16-y1_16 <=1 
C50: x1+x17 <=1 
C51: x1+x19 <=1 
C52: x1+x21-y1_21 <=1 
C53: x1+x25-y1_25 <=1 
C54: x1+x27 <=1 
C55: x1+x28 <=1 
C56: x1+x30-y1_30 <=1 
C57: x1+x31 <=1 
C58: x1+x33 <=1 
C59: x1+x34-y1_34 <=1 
C60: x1+x35 <=1 
C61: x1+x36 <=1 
C62: x1+x38-y1_38 <=1 
C63: x1+x39 <=1 
C64: x1+x40 <=1 
C65: x1+x41 <=1 
C66: x1+x42-y1_42 <=1 
C67: x1+x43-y1_43 <=1 
C68: x1+x44 <=1 
C69: x1+x45 <=1 
C70: x1+x46 <=1 
C71: x1+x47-y1_47 <=1 
C72: x1+x48 <=1 
C73: x1+x49-y1_49 <=1 
C74: x1+x52 <=1 
C75: x1+x53-y1_53 <=1 
C76: x1+x54-y1_54 <=1 
C77: x1+x55-y1_55 <=1 
C78: x1+x56-y1_56 <=1 
C79: x1+x57 <=1 
C80: x1+x58-y1_58 <=1 
C81: x1+x60-y1_60 <=1 
C82: x1+x61 <=1 
C83: x1+x63 <=1 
C84: x2+x4 <=1 
C85: x2+x6-y2_6 <=1 
C86: x2+x8 <=1 
C87: x2+x10 <=1 
C88: x2+x11 <=1 
C89: x2+x14 <=1 
C90: x2+x17 <=1 
C91: x2+x23-y2_23 <=1 
C92: x2+x24 <=1 
C93: x2+x25-y2_25 <=1 
C94: x2+x27-y2_27 <=1 
C95: x2+x30-y2_30 <=1 
C96: x2+x32 <=1 
C97: x2+x34-y2_34 <=1 
C98: x2+x35-y2_35 <=1 
C99: x2+x36-y2_36 <=1 
C100: x2+x38 <=1 
C101: x2+x39-y2_39 <=1 
C102: x2+x41-y2_41 <=1 
C103: x2+x42 <=1 
C104: x2+x44 <=1 
C105: x2+x47-y2_47 <=1 
C106: x2+x48-y2_48 <=1 
C107: x2+x49-y2_49 <=1 
C108: x2+x51-y2_51 <=1 
C109: x2+x52-y2_52 <=1 
C110: x2+x53 <=1 
C111: x2+x55-y2_55 <=1 
C112: x2+x56 <=1 
C113: x2+x57-y2_57 <=1 
C114: x2+x58-y2_58 <=1 
C115: x2+x59-y2_59 <=1 
C116: x2+x61 <=1 
C117: x2+x62-y2_62 <=1 
C118: x2+x63 <=1 
C119: x3+x4 <=1 
C120: x3+x8-y3_8 <=1 
C121: x3+x9-y3_9 <=1 
C122: x3+x11 <=1 
C123: x3+x12 <=1 
C124: x3+x13-y3_13 <=1 
C125: x3+x14-y3_14 <=1 
C126: x3+x17 <=1 
C127: x3+x19 <=1 
C128: x3+x23-y3_23 <=1 
C129: x3+x25 <=1 
C130: x3+x27-y3_27 <=1 
C131: x3+x28 <=1 
C132: x3+x30-y3_30 <=1 
C133: x3+x31 <=1 
C134: x3+x33-y3_33 <=1 
C135: x3+x34 <=1 
C136: x3+x36-y3_36 <=1 
C137: x3+x37-y3_37 <=1 
C138: x3+x38-y3_38 <=1 
C139: x3+x40 <=1 
C140: x3+x41-y3_41 <=1 
C141: x3+x43-y3_43 <=1 
C142: x3+x46 <=1 
C143: x3+x47-y3_47 <=1 
C144: x3+x49-y3_49 <=1 
C145: x3+x51-y3_51 <=1 
C146: x3+x52 <=1 
C147: x3+x53 <=1 
C148: x3+x60-y3_60 <=1 
C149: x3+x62 <=1 
C150: x3+x63 <=1 
C151: x4+x5-y4_5 <=1 
C152: x4+x7 <=1 
C153: x4+x11-y4_11 <=1 
C154: x4+x13-y4_13 <=1 
C155: x4+x14 <=1 
C156: x4+x17 <=1 
C157: x4+x21 <=1 
C158: x4+x23-y4_23 <=1 
C159: x4+x24 <=1 
C160: x4+x25 <=1 
C161: x4+x26-y4_26 <=1 
C162: x4+x29 <=1 
C163: x4+x30 <=1 
C164: x4+x32 <=1 
C165: x4+x33-y4_33 <=1 
C166: x4+x34-y4_34 <=1 
C167: x4+x35 <=1 
C168: x4+x36-y4_36 <=1 
C169: x4+x41-y4_41 <=1 
C170: x4+x42 <=1 
C171: x4+x43 <=1 
C172: x4+x44 <=1 
C173: x4+x45 <=1 
C174: x4+x46-y4_46 <=1 
C175: x4+x47 <=1 
C176: x4+x48 <=1 
C177: x4+x50 <=1 
C178: x4+x51-y4_51 <=1 
C179: x4+x52-y4_52 <=1 
C180: x4+x54-y4_54 <=1 
C181: x4+x57 <=1 
C182: x4+x58 <=1 
C183: x4+x59-y4_59 <=1 
C184: x4+x60-y4_60 <=1 
C185: x4+x61 <=1 
C186: x4+x63-y4_63 <=1 
C187: x5+x6 <=1 
C188: x5+x7-y5_7 <=1 
C189: x5+x8 <=1 
C190: x5+x10-y5_10 <=1 
C191: x5+x12-y5_12 <=1 
C192: x5+x13-y5_13 <=1 
C193: x5+x14 <=1 
C194: x5+x15 <=1 
C195: x5+x16 <=1 
C196: x5+x17-y5_17 <=1 
C197: x5+x18-y5_18 <=1 
C198: x5+x20 <=1 
C199: x5+x21 <=1 
C200: x5+x22-y5_22 <=1 
C201: x5+x28 <=1 
C202: x5+x32-y5_32 <=1 
C203: x5+x34-y5_34 <=1 
C204: x5+x36-y5_36 <=1 
C205: x5+x37 <=1 
C206: x5+x38-y5_38 <=1 
C207: x5+x39 <=1 
C208: x5+x40-y5_40 <=1 
C209: x5+x45 <=1 
C210: x5+x46 <=1 
C211: x5+x48 <=1 
C212: x5+x49 <=1 
C213: x5+x50-y5_50 <=1 
C214: x5+x51-y5_51 <=1 
C215: x5+x56-y5_56 <=1 
C216: x5+x57 <=1 
C217: x5+x58 <=1 
C218: x5+x60-y5_60 <=1 
C219: x5+x62-y5_62 <=1 
C220: x5+x63-y5_63 <=1 
C221: x6+x8-y6_8 <=1 
C222: x6+x10-y6_10 <=1 
C223: x6+x12-y6_12 <=1 
C224: x6+x13-y6_13 <=1 
C225: x6+x15-y6_15 <=1 
C226: x6+x16-y6_16 <=1 
C227: x6+x17-y6_17 <=1 
C228: x6+x19 <=1 
C229: x6+x20 <=1 
C230: x6+x27 <=1 
C231: x6+x29-y6_29 <=1 
C232: x6+x30-y6_30 <=1 
C233: x6+x33-y6_33 <=1 
C234: x6+x34-y6_34 <=1 
C235: x6+x35-y6_35 <=1 
C236: x6+x36 <=1 
C237: x6+x39-y6_39 <=1 
C238: x6+x40-y6_40 <=1 
C239: x6+x41 <=1 
C240: x6+x43 <=1 
C241: x6+x44 <=1 
C242: x6+x48 <=1 
C243: x6+x49-y6_49 <=1 
C244: x6+x50-y6_50 <=1 
C245: x6+x52 <=1 
C246: x6+x53-y6_53 <=1 
C247: x6+x54-y6_54 <=1 
C248: x6+x55 <=1 
C249: x6+x56 <=1 
C250: x6+x57-y6_57 <=1 
C251: x6+x58 <=1 
C252: x6+x59 <=1 
C253: x6+x60 <=1 
C254: x6+x62 <=1 
C255: x6+x63 <=1 
C256: x7+x9-y7_9 <=1 
C257: x7+x10-y7_10 <=1 
C258: x7+x13 <=1 
C259: x7+x16 <=1 
C260: x7+x18 <=1 
C261: x7+x21-y7_21 <=1 
C262: x7+x25 <=1 
C263: x7+x26 <=1 
C264: x7+x27-y7_27 <=1 
C265: x7+x28-y7_28 <=1 
C266: x7+x31-y7_31 <=1 
C267: x7+x32 <=1 
C268: x7+x33-y7_33 <=1 
C269: x7+x35-y7_35 <=1 
C270: x7+x37-y7_37 <=1 
C271: x7+x38-y7_38 <=1 
C272: x7+x39 <=1 
C273: x7+x41 <=1 
C274: x7+x42-y7_42 <=1 
C275: x7+x43 <=1 
C276: x7+x44 <=1 
C277: x7+x45-y7_45 <=1 
C278: x7+x46-y7_46 <=1 
C279: x7+x47 <=1 
C280: x7+x51 <=1 
C281: x7+x52-y7_52 <=1 
C282: x7+x53-y7_53 <=1 
C283: x7+x54 <=1 
C284: x7+x55 <=1 
C285: x7+x56-y7_56 <=1 
C286: x7+x58 <=1 
C287: x7+x59-y7_59 <=1 
C288: x7+x60-y7_60 <=1 
C289: x7+x62-y7_62 <=1 
C290: x7+x63-y7_63 <=1 
C291: x8+x9 <=1 
C292: x8+x12 <=1 
C293: x8+x14 <=1 
C294: x8+x15-y8_15 <=1 
C295: x8+x16-y8_16 <=1 
C296: x8+x17 <=1 
C297: x8+x18-y8_18 <=1 
C298: x8+x21-y8_21 <=1 
C299: x8+x22-y8_22 <=1 
C300: x8+x23-y8_23 <=1 
C301: x8+x24 <=1 
C302: x8+x25-y8_25 <=1 
C303: x8+x27 <=1 
C304: x8+x28-y8_28 <=1 
C305: x8+x29 <=1 
C306: x8+x32 <=1 
C307: x8+x34 <=1 
C308: x8+x36 <=1 
C309: x8+x38 <=1 
C310: x8+x39 <=1 
C311: x8+x40-y8_40 <=1 
C312: x8+x41-y8_41 <=1 
C313: x8+x44-y8_44 <=1 
C314: x8+x45 <=1 
C315: x8+x46 <=1 
C316: x8+x51-y8_51 <=1 
C317: x8+x52 <=1 
C318: x8+x53 <=1 
C319: x8+x54 <=1 
C320: x8+x56-y8_56 <=1 
C321: x8+x59 <=1 
C322: x8+x60 <=1 
C323: x8+x61 <=1 
C324: x8+x63-y8_63 <=1 
C325: x9+x11 <=1 
C326: x9+x12-y9_12 <=1 
C327: x9+x14 <=1 
C328: x9+x15 <=1 
C329: x9+x22 <=1 
C330: x9+x23-y9_23 <=1 
C331: x9+x24 <=1 
C332: x9+x26-y9_26 <=1 
C333: x9+x33 <=1 
C334: x9+x34-y9_34 <=1 
C335: x9+x36-y9_36 <=1 
C336: x9+x38-y9_38 <=1 
C337: x9+x39 <=1 
C338: x9+x40-y9_40 <=1 
C339: x9+x42 <=1 
C340: x9+x43-y9_43 <=1 
C341: x9+x44-y9_44 <=1 
C342: x9+x45 <=1 
C343: x9+x47 <=1 
C344: x9+x49 <=1 
C345: x9+x50-y9_50 <=1 
C346: x9+x54-y9_54 <=1 
C347: x9+x55-y9_55 <=1 
C348: x9+x59-y9_59 <=1 
C349: x9+x60 <=1 
C350: x9+x62 <=1 
C351: x9+x63 <=1 
C352: x10+x14 <=1 
C353: x10+x15-y10_15 <=1 
C354: x10+x16-y10_16 <=1 
C355: x10+x17-y10_17 <=1 
C356: x10+x19 <=1 
C357: x10+x22-y10_22 <=1 
C358: x10+x24 <=1 
C359: x10+x25-y10_25 <=1 
C360: x10+x26 <=1 
C361: x10+x28-y10_28 <=1 
C362: x10+x30-y10_30 <=1 
C363: x10+x34 <=1 
C364: x10+x36 <=1 
C365: x10+x37-y10_37 <=1 
C366: x10+x38 <=1 
C367: x10+x40-y10_40 <=1 
C368: x10+x41 <=1 
C369: x10+x42-y10_42 <=1 
C370: x10+x43 <=1 
C371: x10+x45-y10_45 <=1 
C372: x10+x46-y10_46 <=1 
C373: x10+x50 <=1 
C374: x10+x51 <=1 
C375: x10+x53-y10_53 <=1 
C376: x10+x54-y10_54 <=1 
C377: x10+x55-y10_55 <=1 
C378: x10+x57 <=1 
C379: x10+x60 <=1 
C380: x10+x62 <=1 
C381: x10+x63-y10_63 <=1 
C382: x11+x13-y11_13 <=1 
C383: x11+x14-y11_14 <=1 
C384: x11+x16-y11_16 <=1 
C385: x11+x17-y11_17 <=1 
C386: x11+x18-y11_18 <=1 
C387: x11+x20 <=1 
C388: x11+x21-y11_21 <=1 
C389: x11+x23 <=1 
C390: x11+x25 <=1 
C391: x11+x26 <=1 
C392: x11+x28 <=1 
C393: x11+x29-y11_29 <=1 
C394: x11+x30-y11_30 <=1 
C395: x11+x31 <=1 
C396: x11+x32-y11_32 <=1 
C397: x11+x34 <=1 
C398: x11+x36 <=1 
C399: x11+x37 <=1 
C400: x11+x38-y11_38 <=1 
C401: x11+x41 <=1 
C402: x11+x42-y11_42 <=1 
C403: x11+x43 <=1 
C404: x11+x44-y11_44 <=1 
C405: x11+x47 <=1 
C406: x11+x48-y11_48 <=1 
C407: x11+x49-y11_49 <=1 
C408: x11+x51 <=1 
C409: x11+x56-y11_56 <=1 
C410: x11+x59-y11_59 <=1 
C411: x11+x61 <=1 
C412: x12+x14-y12_14 <=1 
C413: x12+x15 <=1 
C414: x12+x16-y12_16 <=1 
C415: x12+x18-y12_18 <=1 
C416: x12+x19-y12_19 <=1 
C417: x12+x20 <=1 
C418: x12+x21-y12_21 <=1 
C419: x12+x25-y12_25 <=1 
C420: x12+x30-y12_30 <=1 
C421: x12+x35-y12_35 <=1 
C422: x12+x36 <=1 
C423: x12+x38 <=1 
C424: x12+x39 <=1 
C425: x12+x40 <=1 
C426: x12+x41-y12_41 <=1 
C427: x12+x43 <=1 
C428: x12+x44 <=1 
C429: x12+x45 <=1 
C430: x12+x46 <=1 
C431: x12+x47 <=1 
C432: x12+x49-y12_49 <=1 
C433: x12+x50 <=1 
C434: x12+x51 <=1 
C435: x12+x52-y12_52 <=1 
C436: x12+x58-y12_58 <=1 
C437: x13+x14-y13_14 <=1 
C438: x13+x15-y13_15 <=1 
C439: x13+x16 <=1 
C440: x13+x17 <=1 
C441: x13+x18 <=1 
C442: x13+x19-y13_19 <=1 
C443: x13+x20 <=1 
C444: x13+x21 <=1 
C445: x13+x22-y13_22 <=1 
C446: x13+x23 <=1 
C447: x13+x24 <=1 
C448: x13+x25 <=1 
C449: x13+x26-y13_26 <=1 
C450: x13+x28 <=1 
C451: x13+x29 <=1 
C452: x13+x31-y13_31 <=1 
C453: x13+x32-y13_32 <=1 
C454: x13+x35 <=1 
C455: x13+x37-y13_37 <=1 
C456: x13+x41-y13_41 <=1 
C457: x13+x42 <=1 
C458: x13+x43-y13_43 <=1 
C459: x13+x44 <=1 
C460: x13+x46 <=1 
C461: x13+x47-y13_47 <=1 
C462: x13+x49-y13_49 <=1 
C463: x13+x50-y13_50 <=1 
C464: x13+x51-y13_51 <=1 
C465: x13+x53-y13_53 <=1 
C466: x13+x55-y13_55 <=1 
C467: x13+x56 <=1 
C468: x13+x57-y13_57 <=1 
C469: x13+x60-y13_60 <=1 
C470: x13+x62-y13_62 <=1 
C471: x13+x63-y13_63 <=1 
C472: x14+x16 <=1 
C473: x14+x18 <=1 
C474: x14+x20-y14_20 <=1 
C475: x14+x21 <=1 
C476: x14+x27 <=1 
C477: x14+x29 <=1 
C478: x14+x30 <=1 
C479: x14+x31 <=1 
C480: x14+x33-y14_33 <=1 
C481: x14+x34 <=1 
C482: x14+x35 <=1 
C483: x14+x36-y14_36 <=1 
C484: x14+x38-y14_38 <=1 
C485: x14+x39 <=1 
C486: x14+x40-y14_40 <=1 
C487: x14+x41-y14_41 <=1 
C488: x14+x42 <=1 
C489: x14+x43-y14_43 <=1 
C490: x14+x44-y14_44 <=1 
C491: x14+x47 <=1 
C492: x14+x50 <=1 
C493: x14+x51 <=1 
C494: x14+x55-y14_55 <=1 
C495: x14+x57 <=1 
C496: x14+x59-y14_59 <=1 
C497: x14+x60-y14_60 <=1 
C498: x14+x61-y14_61 <=1 
C499: x14+x62-y14_62 <=1 
C500: x15+x17 <=1 
C501: x15+x21-y15_21 <=1 
C502: x15+x22-y15_22 <=1 
C503: x15+x24 <=1 
C504: x15+x26 <=1 
C505: x15+x28 <=1 
C506: x15+x30 <=1 
C507: x15+x33-y15_33 <=1 
C508: x15+x37-y15_37 <=1 
C509: x15+x39 <=1 
C510: x15+x40 <=1 
C511: x15+x41 <=1 
C512: x15+x42-y15_42 <=1 
C513: x15+x43-y15_43 <=1 
C514: x15+x44-y15_44 <=1 
C515: x15+x46 <=1 
C516: x15+x47 <=1 
C517: x15+x48-y15_48 <=1 
C518: x15+x51 <=1 
C519: x15+x52 <=1 
C520: x15+x55 <=1 
C521: x15+x59-y15_59 <=1 
C522: x15+x62-y15_62 <=1 
C523: x16+x17 <=1 
C524: x16+x18-y16_18 <=1 
C525: x16+x21-y16_21 <=1 
C526: x16+x24 <=1 
C527: x16+x25 <=1 
C528: x16+x26-y16_26 <=1 
C529: x16+x28 <=1 
C530: x16+x29-y16_29 <=1 
C531: x16+x30-y16_30 <=1 
C532: x16+x31-y16_31 <=1 
C533: x16+x32-y16_32 <=1 
C534: x16+x34-y16_34 <=1 
C535: x16+x35 <=1 
C536: x16+x37-y16_37 <=1 
C537: x16+x38-y16_38 <=1 
C538: x16+x39-y16_39 <=1 
C539: x16+x41 <=1 
C540: x16+x42-y16_42 <=1 
C541: x16+x44-y16_44 <=1 
C542: x16+x48 <=1 
C543: x16+x49-y16_49 <=1 
C544: x16+x51-y16_51 <=1 
C545: x16+x52 <=1 
C546: x16+x59 <=1 
C547: x16+x63 <=1 
C548: x17+x19 <=1 
C549: x17+x21-y17_21 <=1 
C550: x17+x24 <=1 
C551: x17+x26-y17_26 <=1 
C552: x17+x27 <=1 
C553: x17+x28-y17_28 <=1 
C554: x17+x30-y17_30 <=1 
C555: x17+x31 <=1 
C556: x17+x32-y17_32 <=1 
C557: x17+x33 <=1 
C558: x17+x34 <=1 
C559: x17+x35 <=1 
C560: x17+x37 <=1 
C561: x17+x38-y17_38 <=1 
C562: x17+x39-y17_39 <=1 
C563: x17+x41 <=1 
C564: x17+x42-y17_42 <=1 
C565: x17+x43-y17_43 <=1 
C566: x17+x47-y17_47 <=1 
C567: x17+x48-y17_48 <=1 
C568: x17+x50 <=1 
C569: x17+x51 <=1 
C570: x17+x57 <=1 
C571: x17+x58 <=1 
C572: x17+x59-y17_59 <=1 
C573: x17+x61-y17_61 <=1 
C574: x18+x20 <=1 
C575: x18+x21-y18_21 <=1 
C576: x18+x22 <=1 
C577: x18+x23 <=1 
C578: x18+x24-y18_24 <=1 
C579: x18+x25-y18_25 <=1 
C580: x18+x26 <=1 
C581: x18+x30 <=1 
C582: x18+x31 <=1 
C583: x18+x35 <=1 
C584: x18+x36-y18_36 <=1 
C585: x18+x39-y18_39 <=1 
C586: x18+x40-y18_40 <=1 
C587: x18+x41 <=1 
C588: x18+x42-y18_42 <=1 
C589: x18+x43 <=1 
C590: x18+x44-y18_44 <=1 
C591: x18+x45-y18_45 <=1 
C592: x18+x48 <=1 
C593: x18+x52 <=1 
C594: x18+x53 <=1 
C595: x18+x54-y18_54 <=1 
C596: x18+x55 <=1 
C597: x18+x56 <=1 
C598: x18+x62 <=1 
C599: x19+x22-y19_22 <=1 
C600: x19+x23 <=1 
C601: x19+x24-y19_24 <=1 
C602: x19+x25 <=1 
C603: x19+x26 <=1 
C604: x19+x32-y19_32 <=1 
C605: x19+x33 <=1 
C606: x19+x34 <=1 
C607: x19+x36 <=1 
C608: x19+x38-y19_38 <=1 
C609: x19+x40-y19_40 <=1 
C610: x19+x41 <=1 
C611: x19+x44 <=1 
C612: x19+x46-y19_46 <=1 
C613: x19+x47-y19_47 <=1 
C614: x19+x48 <=1 
C615: x19+x50-y19_50 <=1 
C616: x19+x51 <=1 
C617: x19+x53 <=1 
C618: x19+x54-y19_54 <=1 
C619: x19+x55-y19_55 <=1 
C620: x19+x61-y19_61 <=1 
C621: x19+x62 <=1 
C622: x19+x63 <=1 
C623: x20+x23-y20_23 <=1 
C624: x20+x28 <=1 
C625: x20+x29 <=1 
C626: x20+x30 <=1 
C627: x20+x32 <=1 
C628: x20+x35-y20_35 <=1 
C629: x20+x36 <=1 
C630: x20+x37 <=1 
C631: x20+x38 <=1 
C632: x20+x43 <=1 
C633: x20+x44-y20_44 <=1 
C634: x20+x46-y20_46 <=1 
C635: x20+x47 <=1 
C636: x20+x49-y20_49 <=1 
C637: x20+x50-y20_50 <=1 
C638: x20+x51 <=1 
C639: x20+x52 <=1 
C640: x20+x53 <=1 
C641: x20+x54 <=1 
C642: x20+x57 <=1 
C643: x20+x59-y20_59 <=1 
C644: x20+x61-y20_61 <=1 
C645: x21+x24 <=1 
C646: x21+x25 <=1 
C647: x21+x26-y21_26 <=1 
C648: x21+x28 <=1 
C649: x21+x29 <=1 
C650: x21+x31 <=1 
C651: x21+x33-y21_33 <=1 
C652: x21+x34-y21_34 <=1 
C653: x21+x36 <=1 
C654: x21+x39 <=1 
C655: x21+x41-y21_41 <=1 
C656: x21+x42 <=1 
C657: x21+x44-y21_44 <=1 
C658: x21+x47 <=1 
C659: x21+x48-y21_48 <=1 
C660: x21+x49 <=1 
C661: x21+x51 <=1 
C662: x21+x52-y21_52 <=1 
C663: x21+x53 <=1 
C664: x21+x57 <=1 
C665: x21+x60-y21_60 <=1 
C666: x21+x61-y21_61 <=1 
C667: x22+x23-y22_23 <=1 
C668: x22+x27 <=1 
C669: x22+x28-y22_28 <=1 
C670: x22+x29 <=1 
C671: x22+x30 <=1 
C672: x22+x33-y22_33 <=1 
C673: x22+x34-y22_34 <=1 
C674: x22+x36-y22_36 <=1 
C675: x22+x37 <=1 
C676: x22+x39-y22_39 <=1 
C677: x22+x40 <=1 
C678: x22+x41 <=1 
C679: x22+x42 <=1 
C680: x22+x43-y22_43 <=1 
C681: x22+x46-y22_46 <=1 
C682: x22+x48 <=1 
C683: x22+x49-y22_49 <=1 
C684: x22+x50 <=1 
C685: x22+x51-y22_51 <=1 
C686: x22+x52 <=1 
C687: x22+x54 <=1 
C688: x22+x55 <=1 
C689: x22+x56-y22_56 <=1 
C690: x22+x58-y22_58 <=1 
C691: x22+x59 <=1 
C692: x22+x60-y22_60 <=1 
C693: x22+x61 <=1 
C694: x22+x62-y22_62 <=1 
C695: x22+x63-y22_63 <=1 
C696: x23+x25-y23_25 <=1 
C697: x23+x29-y23_29 <=1 
C698: x23+x30-y23_30 <=1 
C699: x23+x31 <=1 
C700: x23+x32 <=1 
C701: x23+x33-y23_33 <=1 
C702: x23+x34-y23_34 <=1 
C703: x23+x35-y23_35 <=1 
C704: x23+x36 <=1 
C705: x23+x37-y23_37 <=1 
C706: x23+x39-y23_39 <=1 
C707: x23+x40 <=1 
C708: x23+x41 <=1 
C709: x23+x42 <=1 
C710: x23+x43 <=1 
C711: x23+x45-y23_45 <=1 
C712: x23+x46-y23_46 <=1 
C713: x23+x47 <=1 
C714: x23+x49-y23_49 <=1 
C715: x23+x51 <=1 
C716: x23+x52 <=1 
C717: x23+x53-y23_53 <=1 
C718: x23+x55-y23_55 <=1 
C719: x23+x56-y23_56 <=1 
C720: x23+x57-y23_57 <=1 
C721: x23+x58 <=1 
C722: x23+x59 <=1 
C723: x23+x60 <=1 
C724: x23+x61 <=1 
C725: x23+x62 <=1 
C726: x24+x25 <=1 
C727: x24+x28 <=1 
C728: x24+x31-y24_31 <=1 
C729: x24+x32 <=1 
C730: x24+x33 <=1 
C731: x24+x34-y24_34 <=1 
C732: x24+x35-y24_35 <=1 
C733: x24+x36 <=1 
C734: x24+x39 <=1 
C735: x24+x40-y24_40 <=1 
C736: x24+x41 <=1 
C737: x24+x43-y24_43 <=1 
C738: x24+x49-y24_49 <=1 
C739: x24+x52 <=1 
C740: x24+x54-y24_54 <=1 
C741: x24+x57 <=1 
C742: x24+x59-y24_59 <=1 
C743: x24+x62 <=1 
C744: x24+x63 <=1 
C745: x25+x26-y25_26 <=1 
C746: x25+x30 <=1 
C747: x25+x34-y25_34 <=1 
C748: x25+x35-y25_35 <=1 
C749: x25+x38-y25_38 <=1 
C750: x25+x45 <=1 
C751: x25+x46-y25_46 <=1 
C752: x25+x48-y25_48 <=1 
C753: x25+x49 <=1 
C754: x25+x51-y25_51 <=1 
C755: x25+x53 <=1 
C756: x25+x59-y25_59 <=1 
C757: x25+x62-y25_62 <=1 
C758: x26+x28 <=1 
C759: x26+x33 <=1 
C760: x26+x34 <=1 
C761: x26+x36-y26_36 <=1 
C762: x26+x39-y26_39 <=1 
C763: x26+x40 <=1 
C764: x26+x41-y26_41 <=1 
C765: x26+x43-y26_43 <=1 
C766: x26+x46-y26_46 <=1 
C767: x26+x48 <=1 
C768: x26+x50-y26_50 <=1 
C769: x26+x52 <=1 
C770: x26+x53-y26_53 <=1 
C771: x26+x54-y26_54 <=1 
C772: x26+x55-y26_55 <=1 
C773: x26+x56-y26_56 <=1 
C774: x26+x57 <=1 
C775: x26+x58 <=1 
C776: x26+x59-y26_59 <=1 
C777: x26+x60-y26_60 <=1 
C778: x26+x62 <=1 
C779: x27+x28 <=1 
C780: x27+x29 <=1 
C781: x27+x30-y27_30 <=1 
C782: x27+x32-y27_32 <=1 
C783: x27+x34 <=1 
C784: x27+x36-y27_36 <=1 
C785: x27+x38 <=1 
C786: x27+x40-y27_40 <=1 
C787: x27+x41-y27_41 <=1 
C788: x27+x47 <=1 
C789: x27+x48 <=1 
C790: x27+x49-y27_49 <=1 
C791: x27+x50-y27_50 <=1 
C792: x27+x51-y27_51 <=1 
C793: x27+x52-y27_52 <=1 
C794: x27+x55 <=1 
C795: x27+x59-y27_59 <=1 
C796: x27+x60 <=1 
C797: x27+x62-y27_62 <=1 
C798: x27+x63-y27_63 <=1 
C799: x28+x29-y28_29 <=1 
C800: x28+x31 <=1 
C801: x28+x34 <=1 
C802: x28+x39-y28_39 <=1 
C803: x28+x40 <=1 
C804: x28+x42 <=1 
C805: x28+x43 <=1 
C806: x28+x44 <=1 
C807: x28+x45-y28_45 <=1 
C808: x28+x46-y28_46 <=1 
C809: x28+x47-y28_47 <=1 
C810: x28+x49 <=1 
C811: x28+x50 <=1 
C812: x28+x51 <=1 
C813: x28+x52-y28_52 <=1 
C814: x28+x53 <=1 
C815: x28+x54-y28_54 <=1 
C816: x28+x55-y28_55 <=1 
C817: x28+x56 <=1 
C818: x28+x59-y28_59 <=1 
C819: x28+x60 <=1 
C820: x28+x63 <=1 
C821: x29+x30-y29_30 <=1 
C822: x29+x31-y29_31 <=1 
C823: x29+x34 <=1 
C824: x29+x35 <=1 
C825: x29+x38 <=1 
C826: x29+x40 <=1 
C827: x29+x41 <=1 
C828: x29+x42-y29_42 <=1 
C829: x29+x46-y29_46 <=1 
C830: x29+x47-y29_47 <=1 
C831: x29+x48-y29_48 <=1 
C832: x29+x49 <=1 
C833: x29+x50-y29_50 <=1 
C834: x29+x52 <=1 
C835: x29+x53 <=1 
C836: x29+x54-y29_54 <=1 
C837: x29+x55 <=1 
C838: x29+x56 <=1 
C839: x29+x57-y29_57 <=1 
C840: x29+x58 <=1 
C841: x29+x60-y29_60 <=1 
C842: x29+x63 <=1 
C843: x30+x31 <=1 
C844: x30+x33-y30_33 <=1 
C845: x30+x36-y30_36 <=1 
C846: x30+x37-y30_37 <=1 
C847: x30+x39-y30_39 <=1 
C848: x30+x40-y30_40 <=1 
C849: x30+x41-y30_41 <=1 
C850: x30+x43 <=1 
C851: x30+x44-y30_44 <=1 
C852: x30+x45 <=1 
C853: x30+x50 <=1 
C854: x30+x51-y30_51 <=1 
C855: x30+x54-y30_54 <=1 
C856: x30+x55-y30_55 <=1 
C857: x30+x58-y30_58 <=1 
C858: x30+x59 <=1 
C859: x30+x60 <=1 
C860: x30+x63 <=1 
C861: x31+x32 <=1 
C862: x31+x33-y31_33 <=1 
C863: x31+x34 <=1 
C864: x31+x35-y31_35 <=1 
C865: x31+x36-y31_36 <=1 
C866: x31+x39 <=1 
C867: x31+x40 <=1 
C868: x31+x42 <=1 
C869: x31+x43 <=1 
C870: x31+x44-y31_44 <=1 
C871: x31+x45-y31_45 <=1 
C872: x31+x47 <=1 
C873: x31+x50 <=1 
C874: x31+x51-y31_51 <=1 
C875: x31+x52-y31_52 <=1 
C876: x31+x53-y31_53 <=1 
C877: x31+x54 <=1 
C878: x31+x55-y31_55 <=1 
C879: x31+x56-y31_56 <=1 
C880: x31+x58 <=1 
C881: x31+x59-y31_59 <=1 
C882: x31+x60-y31_60 <=1 
C883: x31+x62-y31_62 <=1 
C884: x31+x63 <=1 
C885: x32+x33 <=1 
C886: x32+x36-y32_36 <=1 
C887: x32+x38-y32_38 <=1 
C888: x32+x40 <=1 
C889: x32+x41 <=1 
C890: x32+x45 <=1 
C891: x32+x46-y32_46 <=1 
C892: x32+x48-y32_48 <=1 
C893: x32+x49-y32_49 <=1 
C894: x32+x51 <=1 
C895: x32+x53-y32_53 <=1 
C896: x32+x54 <=1 
C897: x32+x55-y32_55 <=1 
C898: x32+x56-y32_56 <=1 
C899: x32+x59 <=1 
C900: x32+x60 <=1 
C901: x32+x61-y32_61 <=1 
C902: x32+x63 <=1 
C903: x33+x34 <=1 
C904: x33+x35 <=1 
C905: x33+x36 <=1 
C906: x33+x38-y33_38 <=1 
C907: x33+x39 <=1 
C908: x33+x48 <=1 
C909: x33+x49 <=1 
C910: x33+x50-y33_50 <=1 
C911: x33+x51 <=1 
C912: x33+x53-y33_53 <=1 
C913: x33+x55-y33_55 <=1 
C914: x33+x56 <=1 
C915: x33+x58-y33_58 <=1 
C916: x33+x60-y33_60 <=1 
C917: x33+x62 <=1 
C918: x34+x35 <=1 
C919: x34+x36-y34_36 <=1 
C920: x34+x37 <=1 
C921: x34+x38 <=1 
C922: x34+x40-y34_40 <=1 
C923: x34+x41 <=1 
C924: x34+x43 <=1 
C925: x34+x44 <=1 
C926: x34+x47-y34_47 <=1 
C927: x34+x49-y34_49 <=1 
C928: x34+x51-y34_51 <=1 
C929: x34+x53-y34_53 <=1 
C930: x34+x54-y34_54 <=1 
C931: x34+x55 <=1 
C932: x34+x56-y34_56 <=1 
C933: x34+x57 <=1 
C934: x34+x58 <=1 
C935: x34+x59 <=1 
C936: x34+x60-y34_60 <=1 
C937: x34+x62-y34_62 <=1 
C938: x34+x63-y34_63 <=1 
C939: x35+x38 <=1 
C940: x35+x39-y35_39 <=1 
C941: x35+x40 <=1 
C942: x35+x41 <=1 
C943: x35+x43 <=1 
C944: x35+x45 <=1 
C945: x35+x46-y35_46 <=1 
C946: x35+x49 <=1 
C947: x35+x50 <=1 
C948: x35+x52 <=1 
C949: x35+x53 <=1 
C950: x35+x54 <=1 
C951: x35+x55-y35_55 <=1 
C952: x35+x60-y35_60 <=1 
C953: x35+x61 <=1 
C954: x35+x63-y35_63 <=1 
C955: x36+x37-y36_37 <=1 
C956: x36+x38 <=1 
C957: x36+x39 <=1 
C958: x36+x40-y36_40 <=1 
C959: x36+x42-y36_42 <=1 
C960: x36+x43-y36_43 <=1 
C961: x36+x44-y36_44 <=1 
C962: x36+x49 <=1 
C963: x36+x50-y36_50 <=1 
C964: x36+x51-y36_51 <=1 
C965: x36+x52-y36_52 <=1 
C966: x36+x53-y36_53 <=1 
C967: x36+x54-y36_54 <=1 
C968: x36+x56-y36_56 <=1 
C969: x36+x57 <=1 
C970: x36+x58 <=1 
C971: x36+x59 <=1 
C972: x36+x60-y36_60 <=1 
C973: x36+x61-y36_61 <=1 
C974: x36+x62 <=1 
C975: x37+x39 <=1 
C976: x37+x40 <=1 
C977: x37+x41 <=1 
C978: x37+x43 <=1 
C979: x37+x44 <=1 
C980: x37+x45 <=1 
C981: x37+x46-y37_46 <=1 
C982: x37+x47-y37_47 <=1 
C983: x37+x48 <=1 
C984: x37+x49 <=1 
C985: x37+x51-y37_51 <=1 
C986: x37+x54 <=1 
C987: x37+x56 <=1 
C988: x37+x59 <=1 
C989: x37+x60 <=1 
C990: x37+x62 <=1 
C991: x37+x63-y37_63 <=1 
C992: x38+x39-y38_39 <=1 
C993: x38+x40 <=1 
C994: x38+x42 <=1 
C995: x38+x45-y38_45 <=1 
C996: x38+x47-y38_47 <=1 
C997: x38+x48 <=1 
C998: x38+x50-y38_50 <=1 
C999: x38+x52 <=1 
C1000: x38+x53 <=1 
C1001: x38+x54 <=1 
C1002: x38+x58 <=1 
C1003: x38+x59-y38_59 <=1 
C1004: x38+x60-y38_60 <=1 
C1005: x38+x61 <=1 
C1006: x38+x63 <=1 
C1007: x39+x40 <=1 
C1008: x39+x41-y39_41 <=1 
C1009: x39+x44-y39_44 <=1 
C1010: x39+x46 <=1 
C1011: x39+x48-y39_48 <=1 
C1012: x39+x49 <=1 
C1013: x39+x50-y39_50 <=1 
C1014: x39+x53-y39_53 <=1 
C1015: x39+x54 <=1 
C1016: x39+x55-y39_55 <=1 
C1017: x39+x56-y39_56 <=1 
C1018: x39+x57 <=1 
C1019: x39+x58-y39_58 <=1 
C1020: x39+x59 <=1 
C1021: x39+x61-y39_61 <=1 
C1022: x39+x62-y39_62 <=1 
C1023: x40+x41 <=1 
C1024: x40+x44 <=1 
C1025: x40+x45 <=1 
C1026: x40+x47-y40_47 <=1 
C1027: x40+x49-y40_49 <=1 
C1028: x40+x50-y40_50 <=1 
C1029: x40+x52-y40_52 <=1 
C1030: x40+x53 <=1 
C1031: x40+x58-y40_58 <=1 
C1032: x40+x59-y40_59 <=1 
C1033: x40+x61 <=1 
C1034: x40+x62 <=1 
C1035: x40+x63-y40_63 <=1 
C1036: x41+x42-y41_42 <=1 
C1037: x41+x43 <=1 
C1038: x41+x46 <=1 
C1039: x41+x48 <=1 
C1040: x41+x49-y41_49 <=1 
C1041: x41+x52-y41_52 <=1 
C1042: x41+x53-y41_53 <=1 
C1043: x41+x54 <=1 
C1044: x41+x57-y41_57 <=1 
C1045: x41+x61-y41_61 <=1 
C1046: x41+x62-y41_62 <=1 
C1047: x41+x63 <=1 
C1048: x42+x43 <=1 
C1049: x42+x44-y42_44 <=1 
C1050: x42+x45 <=1 
C1051: x42+x46 <=1 
C1052: x42+x47-y42_47 <=1 
C1053: x42+x53-y42_53 <=1 
C1054: x42+x55-y42_55 <=1 
C1055: x42+x57 <=1 
C1056: x42+x61-y42_61 <=1 
C1057: x42+x63-y42_63 <=1 
C1058: x43+x44-y43_44 <=1 
C1059: x43+x46-y43_46 <=1 
C1060: x43+x47 <=1 
C1061: x43+x49 <=1 
C1062: x43+x50 <=1 
C1063: x43+x52-y43_52 <=1 
C1064: x43+x54-y43_54 <=1 
C1065: x43+x56 <=1 
C1066: x43+x57-y43_57 <=1 
C1067: x43+x58 <=1 
C1068: x43+x59 <=1 
C1069: x43+x60-y43_60 <=1 
C1070: x43+x61 <=1 
C1071: x43+x63 <=1 
C1072: x44+x45-y44_45 <=1 
C1073: x44+x47 <=1 
C1074: x44+x48 <=1 
C1075: x44+x50 <=1 
C1076: x44+x51-y44_51 <=1 
C1077: x44+x52 <=1 
C1078: x44+x54-y44_54 <=1 
C1079: x44+x56 <=1 
C1080: x44+x58-y44_58 <=1 
C1081: x44+x61 <=1 
C1082: x44+x62 <=1 
C1083: x44+x63-y44_63 <=1 
C1084: x45+x46 <=1 
C1085: x45+x47 <=1 
C1086: x45+x49-y45_49 <=1 
C1087: x45+x50 <=1 
C1088: x45+x55 <=1 
C1089: x45+x56-y45_56 <=1 
C1090: x45+x60-y45_60 <=1 
C1091: x45+x61-y45_61 <=1 
C1092: x45+x63-y45_63 <=1 
C1093: x46+x47 <=1 
C1094: x46+x48-y46_48 <=1 
C1095: x46+x50 <=1 
C1096: x46+x56-y46_56 <=1 
C1097: x46+x57 <=1 
C1098: x46+x58-y46_58 <=1 
C1099: x46+x59 <=1 
C1100: x46+x61 <=1 
C1101: x47+x50 <=1 
C1102: x47+x61 <=1 
C1103: x47+x62 <=1 
C1104: x48+x49 <=1 
C1105: x48+x50-y48_50 <=1 
C1106: x48+x51-y48_51 <=1 
C1107: x48+x52 <=1 
C1108: x48+x55 <=1 
C1109: x48+x56-y48_56 <=1 
C1110: x48+x57 <=1 
C1111: x48+x58-y48_58 <=1 
C1112: x48+x61-y48_61 <=1 
C1113: x48+x62-y48_62 <=1 
C1114: x49+x50-y49_50 <=1 
C1115: x49+x52 <=1 
C1116: x49+x53-y49_53 <=1 
C1117: x49+x54 <=1 
C1118: x49+x55 <=1 
C1119: x49+x59-y49_59 <=1 
C1120: x49+x60 <=1 
C1121: x49+x61 <=1 
C1122: x49+x63-y49_63 <=1 
C1123: x50+x51-y50_51 <=1 
C1124: x50+x52 <=1 
C1125: x50+x55 <=1 
C1126: x50+x56-y50_56 <=1 
C1127: x50+x58 <=1 
C1128: x50+x59 <=1 
C1129: x50+x60 <=1 
C1130: x50+x62 <=1 
C1131: x50+x63-y50_63 <=1 
C1132: x51+x54-y51_54 <=1 
C1133: x51+x55 <=1 
C1134: x51+x57 <=1 
C1135: x51+x58 <=1 
C1136: x51+x59-y51_59 <=1 
C1137: x51+x61-y51_61 <=1 
C1138: x51+x63 <=1 
C1139: x52+x53-y52_53 <=1 
C1140: x52+x54 <=1 
C1141: x52+x55 <=1 
C1142: x52+x56-y52_56 <=1 
C1143: x52+x57 <=1 
C1144: x52+x58-y52_58 <=1 
C1145: x52+x59-y52_59 <=1 
C1146: x52+x60 <=1 
C1147: x52+x62-y52_62 <=1 
C1148: x52+x63 <=1 
C1149: x53+x54-y53_54 <=1 
C1150: x53+x56-y53_56 <=1 
C1151: x53+x57 <=1 
C1152: x53+x58-y53_58 <=1 
C1153: x53+x59-y53_59 <=1 
C1154: x53+x62-y53_62 <=1 
C1155: x53+x63-y53_63 <=1 
C1156: x54+x58-y54_58 <=1 
C1157: x54+x59-y54_59 <=1 
C1158: x54+x61 <=1 
C1159: x54+x62-y54_62 <=1 
C1160: x55+x56 <=1 
C1161: x55+x59 <=1 
C1162: x55+x60 <=1 
C1163: x55+x61-y55_61 <=1 
C1164: x56+x57 <=1 
C1165: x56+x58 <=1 
C1166: x56+x59 <=1 
C1167: x56+x60-y56_60 <=1 
C1168: x56+x61 <=1 
C1169: x56+x62 <=1 
C1170: x56+x63 <=1 
C1171: x57+x58-y57_58 <=1 
C1172: x58+x62 <=1 
C1173: x58+x63-y58_63 <=1 
C1174: x59+x60 <=1 
C1175: x59+x62 <=1 
C1176: x59+x63 <=1 
C1177: x60+x61-y60_61 <=1 
C1178: x60+x62-y60_62 <=1 
C1179: x60+x63-y60_63 <=1 
C1180: x62+x63 <=1 

binary
x0
x1
x2
x3
x4
x5
x6
x7
x8
x9
x10
x11
x12
x13
x14
x15
x16
x17
x18
x19
x20
x21
x22
x23
x24
x25
x26
x27
x28
x29
x30
x31
x32
x33
x34
x35
x36
x37
x38
x39
x40
x41
x42
x43
x44
x45
x46
x47
x48
x49
x50
x51
x52
x53
x54
x55
x56
x57
x58
x59
x60
x61
x62
x63
