problem_generation/data/GISP/train/er_n=64_m=1180_p=0.60_SET2_setparam=100.00_alpha=0.50_724.sol
objective value:                                 1180
x9                                                  1 	(obj:100)
x10                                                 1 	(obj:100)
x12                                                 1 	(obj:100)
x13                                                 1 	(obj:100)
x27                                                 1 	(obj:100)
x30                                                 1 	(obj:100)
x32                                                 1 	(obj:100)
x37                                                 1 	(obj:100)
x52                                                 1 	(obj:100)
x53                                                 1 	(obj:100)
x58                                                 1 	(obj:100)
x61                                                 1 	(obj:100)
y10_30                                              1 	(obj:-1)
y12_58                                              1 	(obj:-1)
y13_32                                              1 	(obj:-1)
y12_52                                              1 	(obj:-1)
y30_58                                              1 	(obj:-1)
y27_30                                              1 	(obj:-1)
y10_53                                              1 	(obj:-1)
y52_58                                              1 	(obj:-1)
y32_53                                              1 	(obj:-1)
y13_53                                              1 	(obj:-1)
y10_37                                              1 	(obj:-1)
y32_61                                              1 	(obj:-1)
y27_52                                              1 	(obj:-1)
y13_37                                              1 	(obj:-1)
y9_12                                               1 	(obj:-1)
y52_53                                              1 	(obj:-1)
y12_30                                              1 	(obj:-1)
y53_58                                              1 	(obj:-1)
y27_32                                              1 	(obj:-1)
y30_37                                              1 	(obj:-1)
